1228663
0,4,34,97,100,33,51,28,58,83,50,1,80,45,93,106,15,24,82,2,62,19,43,31,94,42,84,60,5,29,102,55,73,91,3,66,78,22,14,16,79,47,20,52,99,101,53,57,103,21,63,9,48,10,90,88,96,46,70,98,104,12,92,95,86,61,18,72,75,49,17,6,87,41,59,105,107,77,32,54,64,11,35,27,39,67,7,13,38,30,69,68,26,85,74,56,71,37,40,25,36,8,65,76,108,23,89,44,81,0